p cnf 679 1857
-2 -5 51 0
2 -5 -51 0
-2 5 -51 0
2 5 51 0
6 8 52 0
-6 8 -52 0
6 -8 -52 0
-6 -8 52 0
9 -11 53 0
-9 -11 -53 0
9 11 -53 0
-9 11 53 0
-12 -13 54 0
12 -13 -54 0
-12 13 -54 0
12 13 54 0
14 16 55 0
-14 16 -55 0
14 -16 -55 0
-14 -16 55 0
19 -20 56 0
-19 -20 -56 0
19 20 -56 0
-19 20 56 0
21 -22 57 0
-21 -22 -57 0
21 22 -57 0
-21 22 57 0
26 29 58 0
-26 29 -58 0
26 -29 -58 0
-26 -29 58 0
-30 31 59 0
30 31 -59 0
-30 -31 -59 0
30 -31 59 0
34 35 60 0
-34 35 -60 0
34 -35 -60 0
-34 -35 60 0
-36 39 61 0
36 39 -61 0
-36 -39 -61 0
36 -39 61 0
43 -44 62 0
-43 -44 -62 0
43 44 -62 0
-43 44 62 0
-45 49 63 0
45 49 -63 0
-45 -49 -63 0
45 -49 63 0
51 -52 64 0
-51 -52 -64 0
51 52 -64 0
-51 52 64 0
53 -54 65 0
-53 -54 -65 0
53 54 -65 0
-53 54 65 0
55 -56 66 0
-55 -56 -66 0
55 56 -66 0
-55 56 66 0
57 -58 67 0
-57 -58 -67 0
57 58 -67 0
-57 58 67 0
59 -60 68 0
-59 -60 -68 0
59 60 -68 0
-59 60 68 0
61 -62 69 0
-61 -62 -69 0
61 62 -69 0
-61 62 69 0
63 -64 70 0
-63 -64 -70 0
63 64 -70 0
-63 64 70 0
65 -66 71 0
-65 -66 -71 0
65 66 -71 0
-65 66 71 0
67 -68 72 0
-67 -68 -72 0
67 68 -72 0
-67 68 72 0
69 -70 73 0
-69 -70 -73 0
69 70 -73 0
-69 70 73 0
71 -72 74 0
-71 -72 -74 0
71 72 -74 0
-71 72 74 0
73 74 0
-73 -74 0
-1 -3 75 0
1 -3 -75 0
-1 3 -75 0
1 3 75 0
-5 6 76 0
5 6 -76 0
-5 -6 -76 0
5 -6 76 0
-8 9 77 0
8 9 -77 0
-8 -9 -77 0
8 -9 77 0
-11 -12 78 0
11 -12 -78 0
-11 12 -78 0
11 12 78 0
-15 -16 79 0
15 -16 -79 0
-15 16 -79 0
15 16 79 0
17 -18 80 0
-17 -18 -80 0
17 18 -80 0
-17 18 80 0
-20 21 81 0
20 21 -81 0
-20 -21 -81 0
20 -21 81 0
22 -24 82 0
-22 -24 -82 0
22 24 -82 0
-22 24 82 0
-26 27 83 0
26 27 -83 0
-26 -27 -83 0
26 -27 83 0
-28 29 84 0
28 29 -84 0
-28 -29 -84 0
28 -29 84 0
-30 31 85 0
30 31 -85 0
-30 -31 -85 0
30 -31 85 0
32 -35 86 0
-32 -35 -86 0
32 35 -86 0
-32 35 86 0
36 37 87 0
-36 37 -87 0
36 -37 -87 0
-36 -37 87 0
-39 41 88 0
39 41 -88 0
-39 -41 -88 0
39 -41 88 0
-44 -47 89 0
44 -47 -89 0
-44 47 -89 0
44 47 89 0
48 -50 90 0
-48 -50 -90 0
48 50 -90 0
-48 50 90 0
75 -76 91 0
-75 -76 -91 0
75 76 -91 0
-75 76 91 0
77 -78 92 0
-77 -78 -92 0
77 78 -92 0
-77 78 92 0
79 -80 93 0
-79 -80 -93 0
79 80 -93 0
-79 80 93 0
81 -82 94 0
-81 -82 -94 0
81 82 -94 0
-81 82 94 0
83 -84 95 0
-83 -84 -95 0
83 84 -95 0
-83 84 95 0
85 -86 96 0
-85 -86 -96 0
85 86 -96 0
-85 86 96 0
87 -88 97 0
-87 -88 -97 0
87 88 -97 0
-87 88 97 0
89 -90 98 0
-89 -90 -98 0
89 90 -98 0
-89 90 98 0
91 -92 99 0
-91 -92 -99 0
91 92 -99 0
-91 92 99 0
93 -94 100 0
-93 -94 -100 0
93 94 -100 0
-93 94 100 0
95 -96 101 0
-95 -96 -101 0
95 96 -101 0
-95 96 101 0
97 -98 102 0
-97 -98 -102 0
97 98 -102 0
-97 98 102 0
99 -100 103 0
-99 -100 -103 0
99 100 -103 0
-99 100 103 0
101 -102 104 0
-101 -102 -104 0
101 102 -104 0
-101 102 104 0
103 104 0
-103 -104 0
-1 5 105 0
1 5 -105 0
-1 -5 -105 0
1 -5 105 0
-7 -8 106 0
7 -8 -106 0
-7 8 -106 0
7 8 106 0
-10 15 107 0
10 15 -107 0
-10 -15 -107 0
10 -15 107 0
17 19 108 0
-17 19 -108 0
17 -19 -108 0
-17 -19 108 0
21 22 109 0
-21 22 -109 0
21 -22 -109 0
-21 -22 109 0
24 -26 110 0
-24 -26 -110 0
24 26 -110 0
-24 26 110 0
-28 32 111 0
28 32 -111 0
-28 -32 -111 0
28 -32 111 0
33 34 112 0
-33 34 -112 0
33 -34 -112 0
-33 -34 112 0
-35 37 113 0
35 37 -113 0
-35 -37 -113 0
35 -37 113 0
-38 39 114 0
38 39 -114 0
-38 -39 -114 0
38 -39 114 0
-40 -46 115 0
40 -46 -115 0
-40 46 -115 0
40 46 115 0
47 -50 116 0
-47 -50 -116 0
47 50 -116 0
-47 50 116 0
105 -106 117 0
-105 -106 -117 0
105 106 -117 0
-105 106 117 0
107 -108 118 0
-107 -108 -118 0
107 108 -118 0
-107 108 118 0
109 -110 119 0
-109 -110 -119 0
109 110 -119 0
-109 110 119 0
111 -112 120 0
-111 -112 -120 0
111 112 -120 0
-111 112 120 0
113 -114 121 0
-113 -114 -121 0
113 114 -121 0
-113 114 121 0
115 -116 122 0
-115 -116 -122 0
115 116 -122 0
-115 116 122 0
117 -118 123 0
-117 -118 -123 0
117 118 -123 0
-117 118 123 0
119 -120 124 0
-119 -120 -124 0
119 120 -124 0
-119 120 124 0
121 -122 125 0
-121 -122 -125 0
121 122 -125 0
-121 122 125 0
-123 -124 125 0
123 -124 -125 0
-123 124 -125 0
123 124 125 0
8 11 126 0
-8 11 -126 0
8 -11 -126 0
-8 -11 126 0
13 -14 127 0
-13 -14 -127 0
13 14 -127 0
-13 14 127 0
-17 18 128 0
17 18 -128 0
-17 -18 -128 0
17 -18 128 0
20 -25 129 0
-20 -25 -129 0
20 25 -129 0
-20 25 129 0
26 -28 130 0
-26 -28 -130 0
26 28 -130 0
-26 28 130 0
-29 35 131 0
29 35 -131 0
-29 -35 -131 0
29 -35 131 0
-36 -37 132 0
36 -37 -132 0
-36 37 -132 0
36 37 132 0
-40 -43 133 0
40 -43 -133 0
-40 43 -133 0
40 43 133 0
-44 -47 134 0
44 -47 -134 0
-44 47 -134 0
44 47 134 0
125 -126 135 0
-125 -126 -135 0
125 126 -135 0
-125 126 135 0
127 -128 136 0
-127 -128 -136 0
127 128 -136 0
-127 128 136 0
129 -130 137 0
-129 -130 -137 0
129 130 -137 0
-129 130 137 0
131 -132 138 0
-131 -132 -138 0
131 132 -138 0
-131 132 138 0
133 -134 139 0
-133 -134 -139 0
133 134 -139 0
-133 134 139 0
135 -136 140 0
-135 -136 -140 0
135 136 -140 0
-135 136 140 0
137 -138 141 0
-137 -138 -141 0
137 138 -141 0
-137 138 141 0
-139 -140 141 0
139 -140 -141 0
-139 140 -141 0
139 140 141 0
1 3 142 0
-1 3 -142 0
1 -3 -142 0
-1 -3 142 0
6 -7 143 0
-6 -7 -143 0
6 7 -143 0
-6 7 143 0
13 -14 144 0
-13 -14 -144 0
13 14 -144 0
-13 14 144 0
-16 -17 145 0
16 -17 -145 0
-16 17 -145 0
16 17 145 0
19 -21 146 0
-19 -21 -146 0
19 21 -146 0
-19 21 146 0
-23 26 147 0
23 26 -147 0
-23 -26 -147 0
23 -26 147 0
27 28 148 0
-27 28 -148 0
27 -28 -148 0
-27 -28 148 0
-31 32 149 0
31 32 -149 0
-31 -32 -149 0
31 -32 149 0
33 -35 150 0
-33 -35 -150 0
33 35 -150 0
-33 35 150 0
-36 37 151 0
36 37 -151 0
-36 -37 -151 0
36 -37 151 0
38 -42 152 0
-38 -42 -152 0
38 42 -152 0
-38 42 152 0
-43 45 153 0
43 45 -153 0
-43 -45 -153 0
43 -45 153 0
47 49 154 0
-47 49 -154 0
47 -49 -154 0
-47 -49 154 0
142 -143 155 0
-142 -143 -155 0
142 143 -155 0
-142 143 155 0
144 -145 156 0
-144 -145 -156 0
144 145 -156 0
-144 145 156 0
146 -147 157 0
-146 -147 -157 0
146 147 -157 0
-146 147 157 0
148 -149 158 0
-148 -149 -158 0
148 149 -158 0
-148 149 158 0
150 -151 159 0
-150 -151 -159 0
150 151 -159 0
-150 151 159 0
152 -153 160 0
-152 -153 -160 0
152 153 -160 0
-152 153 160 0
154 -155 161 0
-154 -155 -161 0
154 155 -161 0
-154 155 161 0
156 -157 162 0
-156 -157 -162 0
156 157 -162 0
-156 157 162 0
158 -159 163 0
-158 -159 -163 0
158 159 -163 0
-158 159 163 0
160 -161 164 0
-160 -161 -164 0
160 161 -164 0
-160 161 164 0
162 -163 165 0
-162 -163 -165 0
162 163 -165 0
-162 163 165 0
164 165 0
-164 -165 0
-1 3 166 0
1 3 -166 0
-1 -3 -166 0
1 -3 166 0
9 10 167 0
-9 10 -167 0
9 -10 -167 0
-9 -10 167 0
11 -14 168 0
-11 -14 -168 0
11 14 -168 0
-11 14 168 0
-15 -18 169 0
15 -18 -169 0
-15 18 -169 0
15 18 169 0
-19 20 170 0
19 20 -170 0
-19 -20 -170 0
19 -20 170 0
-21 22 171 0
21 22 -171 0
-21 -22 -171 0
21 -22 171 0
24 -26 172 0
-24 -26 -172 0
24 26 -172 0
-24 26 172 0
27 -28 173 0
-27 -28 -173 0
27 28 -173 0
-27 28 173 0
-29 30 174 0
29 30 -174 0
-29 -30 -174 0
29 -30 174 0
-31 33 175 0
31 33 -175 0
-31 -33 -175 0
31 -33 175 0
34 35 176 0
-34 35 -176 0
34 -35 -176 0
-34 -35 176 0
37 -38 177 0
-37 -38 -177 0
37 38 -177 0
-37 38 177 0
-39 42 178 0
39 42 -178 0
-39 -42 -178 0
39 -42 178 0
43 44 179 0
-43 44 -179 0
43 -44 -179 0
-43 -44 179 0
46 -48 180 0
-46 -48 -180 0
46 48 -180 0
-46 48 180 0
165 -166 181 0
-165 -166 -181 0
165 166 -181 0
-165 166 181 0
167 -168 182 0
-167 -168 -182 0
167 168 -182 0
-167 168 182 0
169 -170 183 0
-169 -170 -183 0
169 170 -183 0
-169 170 183 0
171 -172 184 0
-171 -172 -184 0
171 172 -184 0
-171 172 184 0
173 -174 185 0
-173 -174 -185 0
173 174 -185 0
-173 174 185 0
175 -176 186 0
-175 -176 -186 0
175 176 -186 0
-175 176 186 0
177 -178 187 0
-177 -178 -187 0
177 178 -187 0
-177 178 187 0
179 -180 188 0
-179 -180 -188 0
179 180 -188 0
-179 180 188 0
181 -182 189 0
-181 -182 -189 0
181 182 -189 0
-181 182 189 0
183 -184 190 0
-183 -184 -190 0
183 184 -190 0
-183 184 190 0
185 -186 191 0
-185 -186 -191 0
185 186 -191 0
-185 186 191 0
187 -188 192 0
-187 -188 -192 0
187 188 -192 0
-187 188 192 0
189 -190 193 0
-189 -190 -193 0
189 190 -193 0
-189 190 193 0
191 -192 194 0
-191 -192 -194 0
191 192 -194 0
-191 192 194 0
193 194 0
-193 -194 0
-2 3 195 0
2 3 -195 0
-2 -3 -195 0
2 -3 195 0
-6 8 196 0
6 8 -196 0
-6 -8 -196 0
6 -8 196 0
10 -11 197 0
-10 -11 -197 0
10 11 -197 0
-10 11 197 0
12 -15 198 0
-12 -15 -198 0
12 15 -198 0
-12 15 198 0
-16 17 199 0
16 17 -199 0
-16 -17 -199 0
16 -17 199 0
18 -19 200 0
-18 -19 -200 0
18 19 -200 0
-18 19 200 0
20 -23 201 0
-20 -23 -201 0
20 23 -201 0
-20 23 201 0
24 27 202 0
-24 27 -202 0
24 -27 -202 0
-24 -27 202 0
-33 35 203 0
33 35 -203 0
-33 -35 -203 0
33 -35 203 0
36 -37 204 0
-36 -37 -204 0
36 37 -204 0
-36 37 204 0
-40 41 205 0
40 41 -205 0
-40 -41 -205 0
40 -41 205 0
43 46 206 0
-43 46 -206 0
43 -46 -206 0
-43 -46 206 0
-48 -49 207 0
48 -49 -207 0
-48 49 -207 0
48 49 207 0
195 -196 208 0
-195 -196 -208 0
195 196 -208 0
-195 196 208 0
197 -198 209 0
-197 -198 -209 0
197 198 -209 0
-197 198 209 0
199 -200 210 0
-199 -200 -210 0
199 200 -210 0
-199 200 210 0
201 -202 211 0
-201 -202 -211 0
201 202 -211 0
-201 202 211 0
203 -204 212 0
-203 -204 -212 0
203 204 -212 0
-203 204 212 0
205 -206 213 0
-205 -206 -213 0
205 206 -213 0
-205 206 213 0
207 -208 214 0
-207 -208 -214 0
207 208 -214 0
-207 208 214 0
209 -210 215 0
-209 -210 -215 0
209 210 -215 0
-209 210 215 0
211 -212 216 0
-211 -212 -216 0
211 212 -216 0
-211 212 216 0
213 -214 217 0
-213 -214 -217 0
213 214 -217 0
-213 214 217 0
215 -216 218 0
-215 -216 -218 0
215 216 -218 0
-215 216 218 0
217 218 0
-217 -218 0
1 2 219 0
-1 2 -219 0
1 -2 -219 0
-1 -2 219 0
-3 4 220 0
3 4 -220 0
-3 -4 -220 0
3 -4 220 0
-5 7 221 0
5 7 -221 0
-5 -7 -221 0
5 -7 221 0
-10 -12 222 0
10 -12 -222 0
-10 12 -222 0
10 12 222 0
15 16 223 0
-15 16 -223 0
15 -16 -223 0
-15 -16 223 0
-20 21 224 0
20 21 -224 0
-20 -21 -224 0
20 -21 224 0
23 24 225 0
-23 24 -225 0
23 -24 -225 0
-23 -24 225 0
25 -27 226 0
-25 -27 -226 0
25 27 -226 0
-25 27 226 0
-28 29 227 0
28 29 -227 0
-28 -29 -227 0
28 -29 227 0
-30 32 228 0
30 32 -228 0
-30 -32 -228 0
30 -32 228 0
33 34 229 0
-33 34 -229 0
33 -34 -229 0
-33 -34 229 0
36 -38 230 0
-36 -38 -230 0
36 38 -230 0
-36 38 230 0
-40 41 231 0
40 41 -231 0
-40 -41 -231 0
40 -41 231 0
46 -47 232 0
-46 -47 -232 0
46 47 -232 0
-46 47 232 0
-48 49 233 0
48 49 -233 0
-48 -49 -233 0
48 -49 233 0
219 -220 234 0
-219 -220 -234 0
219 220 -234 0
-219 220 234 0
221 -222 235 0
-221 -222 -235 0
221 222 -235 0
-221 222 235 0
223 -224 236 0
-223 -224 -236 0
223 224 -236 0
-223 224 236 0
225 -226 237 0
-225 -226 -237 0
225 226 -237 0
-225 226 237 0
227 -228 238 0
-227 -228 -238 0
227 228 -238 0
-227 228 238 0
229 -230 239 0
-229 -230 -239 0
229 230 -239 0
-229 230 239 0
231 -232 240 0
-231 -232 -240 0
231 232 -240 0
-231 232 240 0
233 -234 241 0
-233 -234 -241 0
233 234 -241 0
-233 234 241 0
235 -236 242 0
-235 -236 -242 0
235 236 -242 0
-235 236 242 0
237 -238 243 0
-237 -238 -243 0
237 238 -243 0
-237 238 243 0
239 -240 244 0
-239 -240 -244 0
239 240 -244 0
-239 240 244 0
241 -242 245 0
-241 -242 -245 0
241 242 -245 0
-241 242 245 0
243 -244 246 0
-243 -244 -246 0
243 244 -246 0
-243 244 246 0
245 246 0
-245 -246 0
-2 -3 247 0
2 -3 -247 0
-2 3 -247 0
2 3 247 0
-4 5 248 0
4 5 -248 0
-4 -5 -248 0
4 -5 248 0
8 -10 249 0
-8 -10 -249 0
8 10 -249 0
-8 10 249 0
14 -15 250 0
-14 -15 -250 0
14 15 -250 0
-14 15 250 0
-16 -17 251 0
16 -17 -251 0
-16 17 -251 0
16 17 251 0
20 25 252 0
-20 25 -252 0
20 -25 -252 0
-20 -25 252 0
26 27 253 0
-26 27 -253 0
26 -27 -253 0
-26 -27 253 0
-29 -31 254 0
29 -31 -254 0
-29 31 -254 0
29 31 254 0
-33 34 255 0
33 34 -255 0
-33 -34 -255 0
33 -34 255 0
-36 38 256 0
36 38 -256 0
-36 -38 -256 0
36 -38 256 0
-39 -42 257 0
39 -42 -257 0
-39 42 -257 0
39 42 257 0
-43 46 258 0
43 46 -258 0
-43 -46 -258 0
43 -46 258 0
47 -49 259 0
-47 -49 -259 0
47 49 -259 0
-47 49 259 0
246 -247 260 0
-246 -247 -260 0
246 247 -260 0
-246 247 260 0
248 -249 261 0
-248 -249 -261 0
248 249 -261 0
-248 249 261 0
250 -251 262 0
-250 -251 -262 0
250 251 -262 0
-250 251 262 0
252 -253 263 0
-252 -253 -263 0
252 253 -263 0
-252 253 263 0
254 -255 264 0
-254 -255 -264 0
254 255 -264 0
-254 255 264 0
256 -257 265 0
-256 -257 -265 0
256 257 -265 0
-256 257 265 0
258 -259 266 0
-258 -259 -266 0
258 259 -266 0
-258 259 266 0
260 -261 267 0
-260 -261 -267 0
260 261 -267 0
-260 261 267 0
262 -263 268 0
-262 -263 -268 0
262 263 -268 0
-262 263 268 0
264 -265 269 0
-264 -265 -269 0
264 265 -269 0
-264 265 269 0
266 -267 270 0
-266 -267 -270 0
266 267 -270 0
-266 267 270 0
268 -269 271 0
-268 -269 -271 0
268 269 -271 0
-268 269 271 0
270 271 0
-270 -271 0
-1 2 272 0
1 2 -272 0
-1 -2 -272 0
1 -2 272 0
3 5 273 0
-3 5 -273 0
3 -5 -273 0
-3 -5 273 0
6 -7 274 0
-6 -7 -274 0
6 7 -274 0
-6 7 274 0
8 9 275 0
-8 9 -275 0
8 -9 -275 0
-8 -9 275 0
10 -12 276 0
-10 -12 -276 0
10 12 -276 0
-10 12 276 0
13 14 277 0
-13 14 -277 0
13 -14 -277 0
-13 -14 277 0
-16 -17 278 0
16 -17 -278 0
-16 17 -278 0
16 17 278 0
20 24 279 0
-20 24 -279 0
20 -24 -279 0
-20 -24 279 0
25 -26 280 0
-25 -26 -280 0
25 26 -280 0
-25 26 280 0
28 29 281 0
-28 29 -281 0
28 -29 -281 0
-28 -29 281 0
31 33 282 0
-31 33 -282 0
31 -33 -282 0
-31 -33 282 0
-36 -37 283 0
36 -37 -283 0
-36 37 -283 0
36 37 283 0
-41 42 284 0
41 42 -284 0
-41 -42 -284 0
41 -42 284 0
-44 -45 285 0
44 -45 -285 0
-44 45 -285 0
44 45 285 0
-48 -50 286 0
48 -50 -286 0
-48 50 -286 0
48 50 286 0
272 -273 287 0
-272 -273 -287 0
272 273 -287 0
-272 273 287 0
274 -275 288 0
-274 -275 -288 0
274 275 -288 0
-274 275 288 0
276 -277 289 0
-276 -277 -289 0
276 277 -289 0
-276 277 289 0
278 -279 290 0
-278 -279 -290 0
278 279 -290 0
-278 279 290 0
280 -281 291 0
-280 -281 -291 0
280 281 -291 0
-280 281 291 0
282 -283 292 0
-282 -283 -292 0
282 283 -292 0
-282 283 292 0
284 -285 293 0
-284 -285 -293 0
284 285 -293 0
-284 285 293 0
286 -287 294 0
-286 -287 -294 0
286 287 -294 0
-286 287 294 0
288 -289 295 0
-288 -289 -295 0
288 289 -295 0
-288 289 295 0
290 -291 296 0
-290 -291 -296 0
290 291 -296 0
-290 291 296 0
292 -293 297 0
-292 -293 -297 0
292 293 -297 0
-292 293 297 0
294 -295 298 0
-294 -295 -298 0
294 295 -298 0
-294 295 298 0
296 -297 299 0
-296 -297 -299 0
296 297 -299 0
-296 297 299 0
298 299 0
-298 -299 0
-12 300 0
-24 300 0
-12 -24 301 0
-23 300 0
-12 -23 301 0
-24 -23 301 0
-12 -24 -23 302 0
-22 303 0
-21 303 0
-22 -21 304 0
-20 303 0
-22 -20 304 0
-21 -20 304 0
-22 -21 -20 305 0
-300 306 0
-301 307 0
-302 308 0
-303 306 0
-304 307 0
-305 308 0
-300 -303 307 0
-300 -304 308 0
-300 -305 309 0
-301 -303 308 0
-301 -304 309 0
-301 -305 310 0
-302 -303 309 0
-302 -304 310 0
-302 -305 311 0
-19 312 0
-18 312 0
-19 -18 313 0
-17 312 0
-19 -17 313 0
-18 -17 313 0
-19 -18 -17 314 0
-16 315 0
-15 315 0
-16 -15 316 0
-14 315 0
-16 -14 316 0
-15 -14 316 0
-16 -15 -14 317 0
-312 318 0
-313 319 0
-314 320 0
-315 318 0
-316 319 0
-317 320 0
-312 -315 319 0
-312 -316 320 0
-312 -317 321 0
-313 -315 320 0
-313 -316 321 0
-313 -317 322 0
-314 -315 321 0
-314 -316 322 0
-314 -317 323 0
-306 324 0
-308 325 0
-310 326 0
-318 324 0
-320 325 0
-322 326 0
-306 -318 325 0
-306 -320 326 0
-306 -322 327 0
-308 -318 326 0
-308 -320 327 0
-308 -322 328 0
-310 -318 327 0
-310 -320 328 0
-310 -322 329 0
-307 330 0
-309 331 0
-311 332 0
-319 330 0
-321 331 0
-323 332 0
-307 -319 331 0
-307 -321 332 0
-307 -323 333 0
-309 -319 332 0
-309 -321 333 0
-309 -323 334 0
-311 -319 333 0
-311 -321 334 0
-311 -323 335 0
-325 336 0
-330 336 0
-325 -330 337 0
-326 338 0
-331 338 0
-326 -331 339 0
-327 340 0
-332 340 0
-327 -332 341 0
-328 342 0
-333 342 0
-328 -333 343 0
-329 344 0
-334 344 0
-329 -334 345 0
-13 346 0
-25 346 0
-13 -25 347 0
-11 346 0
-13 -11 347 0
-25 -11 347 0
-13 -25 -11 348 0
-10 349 0
-9 349 0
-10 -9 350 0
-8 349 0
-10 -8 350 0
-9 -8 350 0
-10 -9 -8 351 0
-346 352 0
-347 353 0
-348 354 0
-349 352 0
-350 353 0
-351 354 0
-346 -349 353 0
-346 -350 354 0
-346 -351 355 0
-347 -349 354 0
-347 -350 355 0
-347 -351 356 0
-348 -349 355 0
-348 -350 356 0
-348 -351 357 0
-7 358 0
-6 358 0
-7 -6 359 0
-5 358 0
-7 -5 359 0
-6 -5 359 0
-7 -6 -5 360 0
-4 361 0
-3 361 0
-4 -3 362 0
-2 361 0
-4 -2 362 0
-3 -2 362 0
-4 -3 -2 363 0
-358 364 0
-359 365 0
-360 366 0
-361 364 0
-362 365 0
-363 366 0
-358 -361 365 0
-358 -362 366 0
-358 -363 367 0
-359 -361 366 0
-359 -362 367 0
-359 -363 368 0
-360 -361 367 0
-360 -362 368 0
-360 -363 369 0
-352 370 0
-354 371 0
-356 372 0
-364 370 0
-366 371 0
-368 372 0
-352 -364 371 0
-352 -366 372 0
-352 -368 373 0
-354 -364 372 0
-354 -366 373 0
-354 -368 374 0
-356 -364 373 0
-356 -366 374 0
-356 -368 375 0
-353 376 0
-355 377 0
-357 378 0
-365 376 0
-367 377 0
-369 378 0
-353 -365 377 0
-353 -367 378 0
-353 -369 379 0
-355 -365 378 0
-355 -367 379 0
-355 -369 380 0
-357 -365 379 0
-357 -367 380 0
-357 -369 381 0
-371 382 0
-376 382 0
-371 -376 383 0
-372 384 0
-377 384 0
-372 -377 385 0
-373 386 0
-378 386 0
-373 -378 387 0
-374 388 0
-379 388 0
-374 -379 389 0
-375 390 0
-380 390 0
-375 -380 391 0
-1 392 0
-37 392 0
-1 -37 393 0
-49 392 0
-1 -49 393 0
-37 -49 393 0
-1 -37 -49 394 0
-48 395 0
-47 395 0
-48 -47 396 0
-46 395 0
-48 -46 396 0
-47 -46 396 0
-48 -47 -46 397 0
-392 398 0
-393 399 0
-394 400 0
-395 398 0
-396 399 0
-397 400 0
-392 -395 399 0
-392 -396 400 0
-392 -397 401 0
-393 -395 400 0
-393 -396 401 0
-393 -397 402 0
-394 -395 401 0
-394 -396 402 0
-394 -397 403 0
-45 404 0
-44 404 0
-45 -44 405 0
-43 404 0
-45 -43 405 0
-44 -43 405 0
-45 -44 -43 406 0
-42 407 0
-41 407 0
-42 -41 408 0
-40 407 0
-42 -40 408 0
-41 -40 408 0
-42 -41 -40 409 0
-404 410 0
-405 411 0
-406 412 0
-407 410 0
-408 411 0
-409 412 0
-404 -407 411 0
-404 -408 412 0
-404 -409 413 0
-405 -407 412 0
-405 -408 413 0
-405 -409 414 0
-406 -407 413 0
-406 -408 414 0
-406 -409 415 0
-398 416 0
-400 417 0
-402 418 0
-410 416 0
-412 417 0
-414 418 0
-398 -410 417 0
-398 -412 418 0
-398 -414 419 0
-400 -410 418 0
-400 -412 419 0
-400 -414 420 0
-402 -410 419 0
-402 -412 420 0
-402 -414 421 0
-399 422 0
-401 423 0
-403 424 0
-411 422 0
-413 423 0
-415 424 0
-399 -411 423 0
-399 -413 424 0
-399 -415 425 0
-401 -411 424 0
-401 -413 425 0
-401 -415 426 0
-403 -411 425 0
-403 -413 426 0
-403 -415 427 0
-417 428 0
-422 428 0
-417 -422 429 0
-418 430 0
-423 430 0
-418 -423 431 0
-419 432 0
-424 432 0
-419 -424 433 0
-420 434 0
-425 434 0
-420 -425 435 0
-421 436 0
-426 436 0
-421 -426 437 0
-39 438 0
-38 438 0
-39 -38 439 0
-50 438 0
-39 -50 439 0
-38 -50 439 0
-39 -38 -50 440 0
-36 441 0
-35 441 0
-36 -35 442 0
-34 441 0
-36 -34 442 0
-35 -34 442 0
-36 -35 -34 443 0
-438 444 0
-439 445 0
-440 446 0
-441 444 0
-442 445 0
-443 446 0
-438 -441 445 0
-438 -442 446 0
-438 -443 447 0
-439 -441 446 0
-439 -442 447 0
-439 -443 448 0
-440 -441 447 0
-440 -442 448 0
-440 -443 449 0
-33 450 0
-32 450 0
-33 -32 451 0
-31 450 0
-33 -31 451 0
-32 -31 451 0
-33 -32 -31 452 0
-30 453 0
-29 453 0
-30 -29 454 0
-28 455 0
-27 455 0
-28 -27 456 0
-26 455 0
-28 -26 456 0
-27 -26 456 0
-28 -27 -26 457 0
-453 458 0
-454 459 0
-455 458 0
-456 459 0
-457 460 0
-453 -455 459 0
-453 -456 460 0
-453 -457 461 0
-454 -455 460 0
-454 -456 461 0
-454 -457 462 0
-450 463 0
-451 464 0
-452 465 0
-458 463 0
-459 464 0
-460 465 0
-461 466 0
-462 467 0
-450 -458 464 0
-450 -459 465 0
-450 -460 466 0
-450 -461 467 0
-450 -462 468 0
-451 -458 465 0
-451 -459 466 0
-451 -460 467 0
-451 -461 468 0
-451 -462 469 0
-452 -458 466 0
-452 -459 467 0
-452 -460 468 0
-452 -461 469 0
-452 -462 470 0
-444 471 0
-446 472 0
-448 473 0
-463 471 0
-465 472 0
-467 473 0
-469 474 0
-444 -463 472 0
-444 -465 473 0
-444 -467 474 0
-444 -469 475 0
-446 -463 473 0
-446 -465 474 0
-446 -467 475 0
-446 -469 476 0
-448 -463 474 0
-448 -465 475 0
-448 -467 476 0
-448 -469 477 0
-445 478 0
-447 479 0
-449 480 0
-464 478 0
-466 479 0
-468 480 0
-470 481 0
-445 -464 479 0
-445 -466 480 0
-445 -468 481 0
-445 -470 482 0
-447 -464 480 0
-447 -466 481 0
-447 -468 482 0
-447 -470 483 0
-449 -464 481 0
-449 -466 482 0
-449 -468 483 0
-449 -470 484 0
-472 485 0
-478 485 0
-472 -478 486 0
-473 487 0
-479 487 0
-473 -479 488 0
-474 489 0
-480 489 0
-474 -480 490 0
-475 491 0
-481 491 0
-475 -481 492 0
-476 493 0
-482 493 0
-476 -482 494 0
-477 495 0
-483 495 0
-477 -483 496 0
-416 497 0
-431 498 0
-435 499 0
-471 497 0
-488 498 0
-492 499 0
-496 500 0
-416 -471 498 0
-416 -488 499 0
-416 -492 500 0
-416 -496 501 0
-431 -471 499 0
-431 -488 500 0
-431 -492 501 0
-431 -496 502 0
-435 -471 500 0
-435 -488 501 0
-435 -492 502 0
-429 503 0
-433 504 0
-437 505 0
-486 503 0
-490 504 0
-494 505 0
-429 -486 504 0
-429 -490 505 0
-429 -494 506 0
-433 -486 505 0
-433 -490 506 0
-433 -494 507 0
-437 -486 506 0
-437 -490 507 0
-498 508 0
-503 508 0
-498 -503 509 0
-499 510 0
-504 510 0
-499 -504 511 0
-500 512 0
-505 512 0
-500 -505 513 0
-501 514 0
-506 514 0
-501 -506 515 0
-502 516 0
-507 516 0
-502 -507 517 0
-428 518 0
-432 519 0
-436 520 0
-485 518 0
-489 519 0
-493 520 0
-484 521 0
-428 -485 519 0
-428 -489 520 0
-428 -493 521 0
-428 -484 522 0
-432 -485 520 0
-432 -489 521 0
-432 -493 522 0
-432 -484 523 0
-436 -485 521 0
-436 -489 522 0
-436 -493 523 0
-430 524 0
-434 525 0
-427 526 0
-487 524 0
-491 525 0
-495 526 0
-430 -487 525 0
-430 -491 526 0
-430 -495 527 0
-434 -487 526 0
-434 -491 527 0
-434 -495 528 0
-427 -487 527 0
-427 -491 528 0
-519 529 0
-524 529 0
-519 -524 530 0
-520 531 0
-525 531 0
-520 -525 532 0
-521 533 0
-526 533 0
-521 -526 534 0
-522 535 0
-527 535 0
-522 -527 536 0
-523 537 0
-528 537 0
-508 538 0
-518 538 0
-508 -518 539 0
-509 540 0
-529 540 0
-509 -529 541 0
-510 542 0
-530 542 0
-510 -530 543 0
-511 544 0
-531 544 0
-511 -531 545 0
-512 546 0
-532 546 0
-512 -532 547 0
-513 548 0
-533 548 0
-513 -533 549 0
-514 550 0
-534 550 0
-514 -534 551 0
-515 552 0
-535 552 0
-515 -535 553 0
-516 554 0
-536 554 0
-516 -536 555 0
-517 556 0
-537 556 0
-517 -537 557 0
-370 558 0
-385 559 0
-389 560 0
-497 558 0
-541 559 0
-545 560 0
-549 561 0
-553 562 0
-557 563 0
-370 -497 559 0
-370 -541 560 0
-370 -545 561 0
-370 -549 562 0
-370 -553 563 0
-385 -497 560 0
-385 -541 561 0
-385 -545 562 0
-385 -549 563 0
-389 -497 561 0
-389 -541 562 0
-389 -545 563 0
-383 564 0
-387 565 0
-391 566 0
-539 564 0
-543 565 0
-547 566 0
-551 567 0
-555 568 0
-383 -539 565 0
-383 -543 566 0
-383 -547 567 0
-383 -551 568 0
-387 -539 566 0
-387 -543 567 0
-387 -547 568 0
-391 -539 567 0
-391 -543 568 0
-559 569 0
-564 569 0
-559 -564 570 0
-560 571 0
-565 571 0
-560 -565 572 0
-561 573 0
-566 573 0
-561 -566 574 0
-562 575 0
-567 575 0
-562 -567 576 0
-563 577 0
-568 577 0
-563 -568 578 0
-382 579 0
-386 580 0
-390 581 0
-538 579 0
-542 580 0
-546 581 0
-550 582 0
-554 583 0
-382 -538 580 0
-382 -542 581 0
-382 -546 582 0
-382 -550 583 0
-382 -554 584 0
-386 -538 581 0
-386 -542 582 0
-386 -546 583 0
-386 -550 584 0
-390 -538 582 0
-390 -542 583 0
-390 -546 584 0
-384 585 0
-388 586 0
-381 587 0
-540 585 0
-544 586 0
-548 587 0
-552 588 0
-556 589 0
-384 -540 586 0
-384 -544 587 0
-384 -548 588 0
-384 -552 589 0
-388 -540 587 0
-388 -544 588 0
-388 -548 589 0
-381 -540 588 0
-381 -544 589 0
-580 590 0
-585 590 0
-580 -585 591 0
-581 592 0
-586 592 0
-581 -586 593 0
-582 594 0
-587 594 0
-582 -587 595 0
-583 596 0
-588 596 0
-583 -588 597 0
-584 598 0
-589 598 0
-569 599 0
-579 599 0
-569 -579 600 0
-570 601 0
-590 601 0
-570 -590 602 0
-571 603 0
-591 603 0
-571 -591 604 0
-572 605 0
-592 605 0
-572 -592 606 0
-573 607 0
-593 607 0
-573 -593 608 0
-574 609 0
-594 609 0
-574 -594 610 0
-575 611 0
-595 611 0
-575 -595 612 0
-576 613 0
-596 613 0
-576 -596 614 0
-577 615 0
-597 615 0
-577 -597 616 0
-578 617 0
-598 617 0
-578 -598 618 0
-324 619 0
-339 620 0
-343 621 0
-558 619 0
-602 620 0
-606 621 0
-610 622 0
-614 623 0
-618 624 0
-324 -558 620 0
-324 -602 621 0
-324 -606 622 0
-324 -610 623 0
-324 -614 624 0
-339 -558 621 0
-339 -602 622 0
-339 -606 623 0
-339 -610 624 0
-343 -558 622 0
-343 -602 623 0
-343 -606 624 0
-337 625 0
-341 626 0
-345 627 0
-600 625 0
-604 626 0
-608 627 0
-612 628 0
-616 629 0
-337 -600 626 0
-337 -604 627 0
-337 -608 628 0
-337 -612 629 0
-341 -600 627 0
-341 -604 628 0
-341 -608 629 0
-345 -600 628 0
-345 -604 629 0
-620 630 0
-625 630 0
-620 -625 631 0
-621 632 0
-626 632 0
-621 -626 633 0
-622 634 0
-627 634 0
-622 -627 635 0
-623 636 0
-628 636 0
-623 -628 637 0
-624 638 0
-629 638 0
-624 -629 639 0
-336 640 0
-340 641 0
-344 642 0
-599 640 0
-603 641 0
-607 642 0
-611 643 0
-615 644 0
-336 -599 641 0
-336 -603 642 0
-336 -607 643 0
-336 -611 644 0
-336 -615 645 0
-340 -599 642 0
-340 -603 643 0
-340 -607 644 0
-340 -611 645 0
-344 -599 643 0
-344 -603 644 0
-344 -607 645 0
-338 646 0
-342 647 0
-335 648 0
-601 646 0
-605 647 0
-609 648 0
-613 649 0
-617 650 0
-338 -601 647 0
-338 -605 648 0
-338 -609 649 0
-338 -613 650 0
-342 -601 648 0
-342 -605 649 0
-342 -609 650 0
-335 -601 649 0
-335 -605 650 0
-641 651 0
-646 651 0
-641 -646 652 0
-642 653 0
-647 653 0
-642 -647 654 0
-643 655 0
-648 655 0
-643 -648 656 0
-644 657 0
-649 657 0
-644 -649 658 0
-645 659 0
-650 659 0
-630 660 0
-640 660 0
-630 -640 661 0
-631 662 0
-651 662 0
-631 -651 663 0
-632 664 0
-652 664 0
-632 -652 665 0
-633 666 0
-653 666 0
-633 -653 667 0
-634 668 0
-654 668 0
-634 -654 669 0
-635 670 0
-655 670 0
-635 -655 671 0
-636 672 0
-656 672 0
-636 -656 673 0
-637 674 0
-657 674 0
-637 -657 675 0
-638 676 0
-658 676 0
-638 -658 677 0
-639 678 0
-659 678 0
-639 -659 679 0
-679 0
